p cnf 115 347
c t mc
-3 1 0
-3 2 0
-1 -2 3 0
-6 4 0
-6 5 0
-4 -5 6 0
-7 -1 0
-7 6 0
1 -6 7 0
-9 7 0
-9 -8 0
-7 8 9 0
3 -9 -10 0
-3 9 -10 0
3 9 10 0
-3 -9 10 0
-10 -11 -12 0
10 11 -12 0
-10 11 12 0
10 -11 12 0
-17 -15 0
-17 -16 0
15 16 17 0
18 17 0
18 8 0
-17 -8 -18 0
-19 14 0
-19 18 0
-14 -18 19 0
-20 13 0
-20 -19 0
-13 19 20 0
-21 -8 0
-21 20 0
8 -20 21 0
22 12 0
22 -21 0
-12 21 -22 0
-9 -23 -24 0
9 23 -24 0
-9 23 24 0
9 -23 24 0
24 25 -26 0
-24 -25 -26 0
24 -25 26 0
-24 25 26 0
27 7 0
27 -1 0
-7 1 -27 0
-28 26 0
-28 27 0
-26 -27 28 0
-31 29 0
-31 -30 0
-29 30 31 0
28 31 -32 0
-28 -31 -32 0
28 -31 32 0
-28 31 32 0
14 23 -33 0
-14 -23 -33 0
14 -23 33 0
-14 23 33 0
-34 33 0
-34 14 0
-33 -14 34 0
35 -16 0
35 -8 0
16 8 -35 0
-34 35 -36 0
34 -35 -36 0
-34 -35 36 0
34 35 36 0
-39 37 0
-39 38 0
-37 -38 39 0
39 -2 -40 0
-39 2 -40 0
39 2 40 0
-39 -2 40 0
-41 29 0
-41 -2 0
-29 2 41 0
-42 41 0
-42 -10 0
-41 10 42 0
43 -1 0
43 9 0
1 -9 -43 0
-42 -43 -44 0
42 43 -44 0
-42 43 44 0
42 -43 44 0
45 -8 0
45 -24 0
8 24 -45 0
46 45 0
46 -45 0
-47 44 0
-47 46 0
-44 -46 47 0
-40 47 -48 0
40 -47 -48 0
-40 -47 48 0
40 47 48 0
49 -33 0
49 5 0
33 -5 -49 0
50 48 0
50 49 0
-48 -49 -50 0
36 -50 -51 0
-36 50 -51 0
36 50 51 0
-36 -50 51 0
-52 -32 0
-52 -51 0
32 51 52 0
2 -14 -53 0
-2 14 -53 0
2 14 53 0
-2 -14 53 0
-55 53 0
-55 54 0
-53 -54 55 0
-56 -45 0
-56 4 0
45 -4 56 0
57 -1 -58 0
-57 1 -58 0
57 1 58 0
-57 -1 58 0
56 58 -59 0
-56 -58 -59 0
56 -58 59 0
-56 58 59 0
-55 -59 -60 0
55 59 -60 0
-55 59 60 0
55 -59 60 0
-61 -5 0
-61 -25 0
5 25 61 0
29 18 -62 0
-29 -18 -62 0
29 -18 62 0
-29 18 62 0
-7 62 -63 0
7 -62 -63 0
-7 -62 63 0
7 62 63 0
64 -61 0
64 -63 0
61 63 -64 0
65 -60 0
65 -64 0
60 64 -65 0
-66 52 0
-66 -65 0
-52 65 66 0
22 66 -67 0
-22 -66 -67 0
22 -66 67 0
-22 66 67 0
68 4 -69 0
-68 -4 -69 0
68 -4 69 0
-68 4 69 0
70 -69 0
70 -6 0
69 6 -70 0
71 -53 0
71 -38 0
53 38 -71 0
70 71 -72 0
-70 -71 -72 0
70 -71 72 0
-70 71 72 0
73 -67 0
73 72 0
67 -72 -73 0
7 -19 -74 0
-7 19 -74 0
7 19 74 0
-7 -19 74 0
-75 5 0
-75 -41 0
-5 41 75 0
76 75 0
76 13 0
-75 -13 -76 0
-4 1 -77 0
4 -1 -77 0
-4 -1 77 0
4 1 77 0
78 77 0
78 -10 0
-77 10 -78 0
-79 76 0
-79 78 0
-76 -78 79 0
-18 79 -80 0
18 -79 -80 0
-18 -79 80 0
18 79 80 0
81 -33 0
81 13 0
33 -13 -81 0
83 82 0
83 6 0
-82 -6 -83 0
-84 81 0
-84 -83 0
-81 83 84 0
80 -84 -85 0
-80 84 -85 0
80 84 85 0
-80 -84 85 0
-86 -74 0
-86 85 0
74 -85 86 0
-17 87 -88 0
17 -87 -88 0
-17 -87 88 0
17 87 88 0
90 -68 0
90 -89 0
68 89 -90 0
-91 88 0
-91 -90 0
-88 90 91 0
92 -86 0
92 -91 0
86 91 -92 0
93 -45 0
93 -45 0
45 -93 0
94 -4 0
94 -93 0
4 93 -94 0
-95 89 0
-95 -82 0
-89 82 95 0
-95 2 -96 0
95 -2 -96 0
-95 -2 96 0
95 2 96 0
-25 96 -97 0
25 -96 -97 0
-25 -96 97 0
25 96 97 0
97 43 -98 0
-97 -43 -98 0
97 -43 98 0
-97 43 98 0
98 97 -99 0
-98 -97 -99 0
98 -97 99 0
-98 97 99 0
68 17 -101 0
-68 -17 -101 0
68 -17 101 0
-68 17 101 0
102 -7 0
102 -101 0
7 101 -102 0
103 100 0
103 -102 0
-100 102 -103 0
104 99 0
104 103 0
-99 -103 -104 0
94 -104 -105 0
-94 104 -105 0
94 104 105 0
-94 -104 105 0
92 105 -106 0
-92 -105 -106 0
92 -105 106 0
-92 105 106 0
73 -106 -107 0
-73 106 -107 0
73 106 107 0
-73 -106 107 0
-108 102 0
-108 -42 0
-102 42 108 0
109 -100 0
109 -33 0
100 33 -109 0
110 95 0
110 109 0
-95 -109 -110 0
-111 -33 0
-111 -110 0
33 110 111 0
-112 108 0
-112 111 0
-108 -111 112 0
-113 6 0
-113 23 0
-6 -23 113 0
112 113 -114 0
-112 -113 -114 0
112 -113 114 0
-112 113 114 0
115 107 0
115 -114 0
-107 114 -115 0
-111 -71 -63 -113 -80 90 15 86 49 0
-54 41 51 100 -5 -62 74 0
-34 -115 -80 -35 77 -27 47 65 0
-11 63 -42 99 67 -56 50 -93 14 0
-24 -44 109 -70 60 90 0
6 -113 -80 21 -30 95 -2 -67 16 -97 0
-25 70 -98 21 22 -65 0
-31 49 65 97 80 0
-26 36 105 -75 101 -43 -40 0
-1 -2 -60 -70 0
19 -33 86 -59 -4 37 0
-84 -1 -101 89 58 -86 94 53 -5 0
44 35 91 55 57 42 0
-38 -95 -77 -114 -101 52 65 88 -66 0
-30 28 -23 -89 0
-22 104 75 0
-23 103 18 -44 113 95 0
-91 -95 108 0
100 80 0
-49 -114 27 42 14 -97 -69 -103 95 0
115 -19 13 0
-25 96 95 -70 23 0
-8 113 -4 25 -77 -74 14 0
70 -28 1 -36 62 98 0
-88 46 -9 0
-75 -28 110 -30 -10 -109 58 97 -38 84 0
-115 66 111 29 86 0
45 -30 95 -112 -115 103 88 105 0
67 74 27 -24 -9 -31 36 92 14 -89 0
-92 -19 108 36 37 44 40 60 26 0
8 -68 33 -58 5 0
77 -13 -111 0
42 -85 35 95 -86 114 -94 56 -84 0
-63 -14 -67 3 56 80 -18 -89 0
54 -94 10 55 22 -27 -29 -11 -33 31 0
34 101 111 -104 -25 63 -49 0
95 -26 -1 66 -110 0
115 0
